%nproc=2
%mem=1GB
#HF STO-3G opt freq

Formic Acid Monomer 

0 1
C1 
O2 C1 1.2 
O3 C1 1.45 O2 120.0
H4 C1 1.0 O3 120.0 O2 180.0
H5 O3 0.98 C1 120.0 O2 0.0

