%nproc=2
%mem=1GB
#HF STO-3G opt freq

Formic Acid Dimer

0 1
C1 
O2 C1 1.2 
O3 C1 1.45 O2 120.0
H4 C1 1.0 O3 120.0 O2 180.0
H5 O3 0.98 C1 120.0 O2 0.0
H6 O2 2.0 C1 120.0 O3 0.0
O7 H6 0.98 O2 180.0 C1 0.0
C8 O7 1.45 H6 120.0 H5 0.0
O9 C8 1.2 O7 120.0 H4 0.0
H10 C8 1.0 O7 120.0 O9 180.0

