#Put Keywords Here, check Charge and Multiplicity.

 

0  1
N          -3.55191        -0.11687        -1.09198
C          -4.21313        -0.26318         0.09636
H          -3.91151        -0.63490        -1.88349
H          -2.54686        -0.21309        -0.97749
N          -3.49228        -0.24127         1.17583
C          -4.10673        -0.38653         2.39394
N          -5.47144        -0.55391         2.41534
C          -6.24688        -0.57913         1.29661
H          -5.87219        -0.65196         3.33867
C          -5.68468        -0.44209         0.09690
H          -7.31421        -0.70866         1.43630
O          -3.49316        -0.37993         3.45751
H          -6.23664        -0.44008        -0.83088

