#Put Keywords Here, check Charge and Multiplicity.

 

0  1
C           0.00000         0.00000         0.00000
C           1.47020         0.00000         0.00000
C           2.11473         0.00000         1.17823
N          -0.54429        -0.04320         1.25584
N           1.50696        -0.00410         2.39777
C           0.20721        -0.02391         2.39824
H          -1.55681        -0.03570         1.32199
N           2.34063         0.16085        -1.07884
N           3.47427         0.13418         0.90144
C           3.66307         0.43697        -0.51697
H           1.98559         0.82307        -1.76017
H           3.93746         1.48794        -0.65867
H           4.42233        -0.21306        -0.96124
H           3.93421         0.73380         1.57408
N          -0.48160        -0.01992         3.56312
H           0.05978        -0.28423         4.37613
H          -1.45250        -0.33086         3.57079
O          -0.67365         0.05519        -1.02561

