#Put Keywords Here, check Charge and Multiplicity.

 

0  1
C          -5.29245         0.12458        -0.00603
C          -3.97417         0.86567         0.15091
H          -5.33228        -0.75483         0.64447
H          -5.43220        -0.20617        -1.04027
H          -6.12905         0.77976         0.25621
C          -2.77934        -0.06304        -0.06381
H          -3.92469         1.30032         1.15633
H          -3.94033         1.69625        -0.56342
C          -1.45781         0.69751         0.04345
H          -2.84987        -0.53762        -1.05035
H          -2.80467        -0.86602         0.68282
C          -0.26518        -0.24035        -0.05457
H          -1.41120         1.23650         0.99696
H          -1.39594         1.44560        -0.75537
H          -0.27290        -0.96859         0.76282
H           0.66896         0.32674         0.00631
H          -0.27081        -0.78741        -1.00265

