#Put Keywords Here, check Charge and Multiplicity.

 

0  1
C          -6.18391         0.97374         0.00000
C          -4.56509         2.40189        -0.00000
H          -6.96904         1.08371        -0.66069
H          -6.17268         0.18103         0.66069
C          -3.10815         0.73030         0.00000
H          -4.49754         3.43167        -0.00000
C          -1.21412         2.58040         0.00000
H          -3.13292         0.11304        -0.87365
H          -3.13954        -0.05197         0.72936
C           0.43708         0.73030        -0.00000
H          -1.17879         3.61180         0.00000
H           0.11388        -0.24978        -0.00000
H           1.44746         0.94044        -0.00000

