#Put Keywords Here, check Charge and Multiplicity.

 

0  1
C          -4.67545        -0.05184        -0.03336
C          -3.44810         0.47405         0.03929
H          -4.95980        -0.99707        -0.51526
H          -5.56494         0.42850         0.42028
C          -2.11856        -0.24532        -0.08410
H          -3.41551         1.53246         0.33273
C          -0.82810         0.19764        -0.03980
H          -2.27085        -1.32429        -0.08496
C           0.52300        -0.61125        -0.01654
H          -0.63110         1.27329         0.00411
H           0.39137        -1.69957        -0.00693
H           1.15924        -0.37925         0.85907
H           1.18081        -0.38670        -0.87453

