#Put Keywords Here, check Charge and Multiplicity.

 

0  1
O          -3.51516         0.00036        -0.68242
C          -4.08640         0.01350         0.42112
N          -3.34480         0.02874         1.59667
C          -3.82977         0.04383         2.89742
H          -2.32958         0.02930         1.50223
C          -5.61077         0.01347         0.51393
C          -6.52082        -0.00763        -0.82783
H          -6.44146         0.90014        -1.45729
H          -7.61230        -0.10375        -0.65407
H          -6.30067        -0.83708        -1.52774
C          -6.04704         0.02461         1.80381
O          -3.11107         0.05726         3.88205
N          -5.22319         0.04128         2.93744
H          -7.10954         0.02460         2.03517
H          -5.63693         0.05251         3.87516

